n = 63;
k = 3;
roles = [
{f, m},
{g, f},
{g, m},
{g, m},
{f, d},
{f, g},
{f, g},
{d, g},
{g, m},
{f, g},
{m, d},
{d, f},
{m, d},
{d, g},
{d, m},
{d, g},
{m, d},
{d, m},
{m, d},
{d, m},
{g, d},
{f, m},
{m, f},
{m, g},
{m, f},
{m, f},
{m, d},
{d, m},
{g, f},
{m, f},
{g, f},
{m, d},
{g, f},
{f, d},
{m, f},
{g, m},
{g, d},
{f, d},
{g, m},
{f, d},
{g, m},
{d, m},
{f, d},
{g, d},
{d, m},
{f, g},
{g, d},
{m, f},
{d, g},
{m, f},
{m, g},
{g, f},
{m, g},
{m, d},
{m, d},
{g, f},
{g, m},
{d, g},
{m, d},
{m, f},
{d, g},
{d, f},
{d, g}
];
num_pairs = 3;
player1 = [26, 17, 28];
player2 = [2, 22, 54];
